;; sequence(s): A245114
;; terms: 1 3 36 585 10935 221697 4740120 105225318 2402040420 56029889025 1329627118248 31998624800220 779102941714461 19157195459506230 475034438632316400 11865382635213387504 298265217964573747095 7539795161286074350785 191548870595159091038640 4888023169106780049244275
;; small program: (loop2(x * y, 1 + (2 + y), x - 1, 1, 2 * (2 + x)) * loop((x + x) + x, x, 1)) div loop(x * y, x, 1)
;; fast program: (loop2(x * y, 1 + (2 + y), x - 1, 1, 2 * (2 + x)) * loop2(x * y, y, x, 1, 1 + 2)) div loop(x * y, x, 1)
(set-logic UFNIA)
(define-fun divf ((a Int) (b Int)) Int (ite (< 0 b) (div a b) (div (- a) (- b))))
(declare-fun f0 (Int Int) Int)
(declare-fun g0 (Int Int) Int)
(declare-fun h0 (Int) Int)
(declare-fun i0 () Int)
(declare-fun j0 (Int) Int)
(declare-fun u0 (Int Int Int) Int)
(declare-fun v0 (Int Int Int) Int)
(declare-fun w0 (Int) Int)
(declare-fun f1 (Int) Int)
(declare-fun g1 (Int) Int)
(declare-fun h1 () Int)
(declare-fun u1 (Int Int) Int)
(declare-fun v1 (Int) Int)
(declare-fun f2 (Int Int) Int)
(declare-fun g2 (Int) Int)
(declare-fun h2 () Int)
(declare-fun u2 (Int Int) Int)
(declare-fun v2 (Int) Int)
(declare-fun small (Int) Int)
(declare-fun f3 (Int Int) Int)
(declare-fun g3 (Int Int) Int)
(declare-fun h3 (Int) Int)
(declare-fun i3 () Int)
(declare-fun j3 (Int) Int)
(declare-fun u3 (Int Int Int) Int)
(declare-fun v3 (Int Int Int) Int)
(declare-fun w3 (Int) Int)
(declare-fun f4 (Int Int) Int)
(declare-fun g4 (Int Int) Int)
(declare-fun h4 (Int) Int)
(declare-fun i4 () Int)
(declare-fun j4 () Int)
(declare-fun u4 (Int Int Int) Int)
(declare-fun v4 (Int Int Int) Int)
(declare-fun w4 (Int) Int)
(declare-fun f5 (Int Int) Int)
(declare-fun g5 (Int) Int)
(declare-fun h5 () Int)
(declare-fun u5 (Int Int) Int)
(declare-fun v5 (Int) Int)
(declare-fun fast (Int) Int)
(assert (forall ((x Int) (y Int)) (= (f0 x y) (* x y))))
(assert (forall ((x Int) (y Int)) (= (g0 x y) (+ 1 (+ 2 y)))))
(assert (forall ((x Int)) (= (h0 x) (- x 1))))
(assert (= i0 1))
(assert (forall ((x Int)) (= (j0 x) (* 2 (+ 2 x)))))
(assert (forall ((x Int) (y Int) (z Int)) (= (u0 x y z) (ite (<= x 0) y (f0 (u0 (- x 1) y z) (v0 (- x 1) y z))))))
(assert (forall ((x Int) (y Int) (z Int)) (= (v0 x y z) (ite (<= x 0) z (g0 (u0 (- x 1) y z) (v0 (- x 1) y z))))))
(assert (forall ((x Int)) (= (w0 x) (u0 (h0 x) i0 (j0 x)))))
(assert (forall ((x Int)) (= (f1 x) (+ (+ x x) x))))
(assert (forall ((x Int)) (= (g1 x) x)))
(assert (= h1 1))
(assert (forall ((x Int) (y Int)) (= (u1 x y) (ite (<= x 0) y (f1 (u1 (- x 1) y))))))
(assert (forall ((x Int)) (= (v1 x) (u1 (g1 x) h1))))
(assert (forall ((x Int) (y Int)) (= (f2 x y) (* x y))))
(assert (forall ((x Int)) (= (g2 x) x)))
(assert (= h2 1))
(assert (forall ((x Int) (y Int)) (= (u2 x y) (ite (<= x 0) y (f2 (u2 (- x 1) y) x)))))
(assert (forall ((x Int)) (= (v2 x) (u2 (g2 x) h2))))
(assert (forall ((x Int)) (= (small x) (divf (* (w0 x) (v1 x)) (v2 x)))))
(assert (forall ((x Int) (y Int)) (= (f3 x y) (* x y))))
(assert (forall ((x Int) (y Int)) (= (g3 x y) (+ 1 (+ 2 y)))))
(assert (forall ((x Int)) (= (h3 x) (- x 1))))
(assert (= i3 1))
(assert (forall ((x Int)) (= (j3 x) (* 2 (+ 2 x)))))
(assert (forall ((x Int) (y Int) (z Int)) (= (u3 x y z) (ite (<= x 0) y (f3 (u3 (- x 1) y z) (v3 (- x 1) y z))))))
(assert (forall ((x Int) (y Int) (z Int)) (= (v3 x y z) (ite (<= x 0) z (g3 (u3 (- x 1) y z) (v3 (- x 1) y z))))))
(assert (forall ((x Int)) (= (w3 x) (u3 (h3 x) i3 (j3 x)))))
(assert (forall ((x Int) (y Int)) (= (f4 x y) (* x y))))
(assert (forall ((x Int) (y Int)) (= (g4 x y) y)))
(assert (forall ((x Int)) (= (h4 x) x)))
(assert (= i4 1))
(assert (= j4 (+ 1 2)))
(assert (forall ((x Int) (y Int) (z Int)) (= (u4 x y z) (ite (<= x 0) y (f4 (u4 (- x 1) y z) (v4 (- x 1) y z))))))
(assert (forall ((x Int) (y Int) (z Int)) (= (v4 x y z) (ite (<= x 0) z (g4 (u4 (- x 1) y z) (v4 (- x 1) y z))))))
(assert (forall ((x Int)) (= (w4 x) (u4 (h4 x) i4 j4))))
(assert (forall ((x Int) (y Int)) (= (f5 x y) (* x y))))
(assert (forall ((x Int)) (= (g5 x) x)))
(assert (= h5 1))
(assert (forall ((x Int) (y Int)) (= (u5 x y) (ite (<= x 0) y (f5 (u5 (- x 1) y) x)))))
(assert (forall ((x Int)) (= (v5 x) (u5 (g5 x) h5))))
(assert (forall ((x Int)) (= (fast x) (divf (* (w3 x) (w4 x)) (v5 x)))))
(assert (exists ((c Int)) (and (>= c 0) (not (= (small c) (fast c))))))
(check-sat)
